solution status: time limit reached
objective value:                               -11000
C146243                                             1 	(obj:-1000)
delta_0_0_1                                         1 	(obj:0)
delta_0_1_2                                         1 	(obj:0)
delta_0_2_0                                         1 	(obj:0)
delta_1_0_1                                         1 	(obj:0)
delta_1_1_0                                         1 	(obj:0)
delta_1_2_2                                         1 	(obj:0)
delta_2_0_1                                         1 	(obj:0)
delta_2_1_2                                         1 	(obj:0)
delta_2_2_0                                         1 	(obj:0)
delta_4_0_2                                         1 	(obj:0)
delta_4_1_1                                         1 	(obj:0)
delta_4_2_0                                         1 	(obj:0)
delta_5_0_1                                         1 	(obj:0)
delta_5_1_2                                         1 	(obj:0)
delta_5_2_0                                         1 	(obj:0)
delta_6_0_1                                         1 	(obj:0)
delta_6_1_0                                         1 	(obj:0)
delta_6_2_2                                         1 	(obj:0)
delta_7_0_2                                         1 	(obj:0)
delta_7_1_1                                         1 	(obj:0)
delta_7_2_0                                         1 	(obj:0)
delta_8_0_1                                         1 	(obj:0)
delta_8_1_0                                         1 	(obj:0)
delta_8_2_2                                         1 	(obj:0)
delta_9_0_1                                         1 	(obj:0)
delta_9_1_2                                         1 	(obj:0)
delta_9_2_0                                         1 	(obj:0)
delta_10_0_2                                        1 	(obj:0)
delta_10_1_1                                        1 	(obj:0)
delta_10_2_0                                        1 	(obj:0)
delta_11_0_1                                        1 	(obj:0)
delta_11_1_2                                        1 	(obj:0)
delta_11_2_0                                        1 	(obj:0)
lambda_0_2_1                                        1 	(obj:0)
lambda_0_4_1                                        1 	(obj:0)
lambda_0_5_1                                        1 	(obj:0)
lambda_0_8_1                                        1 	(obj:0)
lambda_0_9_1                                        1 	(obj:0)
lambda_0_10_1                                       1 	(obj:0)
lambda_1_0_1                                        1 	(obj:0)
lambda_1_2_1                                        1 	(obj:0)
lambda_1_4_1                                        1 	(obj:0)
lambda_1_5_1                                        1 	(obj:0)
lambda_1_6_1                                        1 	(obj:0)
lambda_1_7_1                                        1 	(obj:0)
lambda_1_8_1                                        1 	(obj:0)
lambda_1_9_1                                        1 	(obj:0)
lambda_1_10_1                                       1 	(obj:0)
lambda_2_4_1                                        1 	(obj:0)
lambda_2_5_1                                        1 	(obj:0)
lambda_2_8_1                                        1 	(obj:0)
lambda_2_9_1                                        1 	(obj:0)
lambda_4_8_1                                        1 	(obj:0)
lambda_5_4_1                                        1 	(obj:0)
lambda_5_8_1                                        1 	(obj:0)
lambda_5_9_1                                        1 	(obj:0)
lambda_6_0_1                                        1 	(obj:0)
lambda_6_2_1                                        1 	(obj:0)
lambda_6_4_1                                        1 	(obj:0)
lambda_6_5_1                                        1 	(obj:0)
lambda_6_7_1                                        1 	(obj:0)
lambda_6_8_1                                        1 	(obj:0)
lambda_6_9_1                                        1 	(obj:0)
lambda_6_10_1                                       1 	(obj:0)
lambda_7_0_1                                        1 	(obj:0)
lambda_7_2_1                                        1 	(obj:0)
lambda_7_4_1                                        1 	(obj:0)
lambda_7_5_1                                        1 	(obj:0)
lambda_7_8_1                                        1 	(obj:0)
lambda_7_9_1                                        1 	(obj:0)
lambda_7_10_1                                       1 	(obj:0)
lambda_9_4_1                                        1 	(obj:0)
lambda_9_8_1                                        1 	(obj:0)
lambda_10_2_1                                       1 	(obj:0)
lambda_10_4_1                                       1 	(obj:0)
lambda_10_5_1                                       1 	(obj:0)
lambda_10_8_1                                       1 	(obj:0)
lambda_10_9_1                                       1 	(obj:0)
lambda_11_0_1                                       1 	(obj:0)
lambda_11_1_1                                       1 	(obj:0)
lambda_11_2_1                                       1 	(obj:0)
lambda_11_4_1                                       1 	(obj:0)
lambda_11_5_1                                       1 	(obj:0)
lambda_11_6_1                                       1 	(obj:0)
lambda_11_7_1                                       1 	(obj:0)
lambda_11_8_1                                       1 	(obj:0)
lambda_11_9_1                                       1 	(obj:0)
lambda_11_10_1                                      1 	(obj:0)
C146178                                             1 	(obj:-1000)
C146180                                             1 	(obj:-1000)
C146183                                             1 	(obj:-1000)
C146192                                             1 	(obj:-1000)
C146198                                             1 	(obj:-1000)
C146205                                             1 	(obj:-1000)
C146213                                             1 	(obj:-1000)
C146222                                             1 	(obj:-1000)
C146232                                             1 	(obj:-1000)
C146255                                             1 	(obj:-1000)
C12                                                 6 	(obj:0)
C13                                                15 	(obj:0)
C14                                                 6 	(obj:0)
C15                                                 6 	(obj:0)
C16                                                35 	(obj:0)
C17                                                 6 	(obj:0)
C18                                                 5 	(obj:0)
C19                                                85 	(obj:0)
C20                                                 5 	(obj:0)
C21                                                 5 	(obj:0)
C22                                                75 	(obj:0)
C23                                                 5 	(obj:0)
C24                                                 5 	(obj:0)
C25                                                 5 	(obj:0)
C26                                                 5 	(obj:0)
C27                                                 5 	(obj:0)
C28                                                25 	(obj:0)
C29                                                 5 	(obj:0)
C30                                                 5 	(obj:0)
C31                                                55 	(obj:0)
C32                                                 5 	(obj:0)
C33                                                 5 	(obj:0)
C34                                               105 	(obj:0)
C35                                                 5 	(obj:0)
pse_X_0_x                                           6 	(obj:0)
pse_X_0_y                                          65 	(obj:0)
pse_X_0_z                                           6 	(obj:0)
pse_X_1_x                                           6 	(obj:0)
pse_X_1_y                                          95 	(obj:0)
pse_X_1_z                                           6 	(obj:0)
pse_X_2_x                                           6 	(obj:0)
pse_X_2_y                                          45 	(obj:0)
pse_X_2_z                                           6 	(obj:0)
